
  22   10
  10   10   10   10   10   10   10   10   10   10

   0   0   0   0   0   0   0   0   0   0   0  13 2 3 4 5 6 7 8 9 10 18 19 20 21 
   6   0   0   0   0   0  10   0   0   0   0   3 17 13 11 
   3   0   0   0  10   0   0   0   0   0   0   3 16 12 11 
   2   0   0   0   0   0   0   0   0  10   0   3 14 12 11 
   1   0   0   0   0   0   0   0   0   0  10   3 13 12 11 
  10   0   0   0   0   0  10   0   0   0   0   2 15 12 
   5   0   0   0   0   0   0   0   0  10   0   2 13 12 
   3   0   0   0   0  10   0   0   0   0   0   1 14 
   9  10   0   0   0   0   0   0   0   0   0   1 11 
   9   0   0   0   0   0   0   0   0   0  10   1 11 
   9   0   0   0   0   0   0   0   0   0  10   1 22
   5   0   0   0   0   0   0  10   0   0   0   1 22
   9   0   0   0   0   0   0   0   0  10   0   1 22
  10  10   0   0   0   0   0   0   0   0   0   1 22
   6   0   0   0   0   0   0   0   0  10   0   1 22
   1   0   0  10   0   0   0   0   0   0   0   1 22
   1  10   0   0   0   0   0   0   0   0   0   1 22
   1   0   0   0   0   0   0  10   0   0   0   1 22
   1  10   0   0   0   0   0   0   0   0   0   1 22
   7   0   0   0  10   0   0   0   0   0   0   1 22
   5   0   0   0   0  10   0   0   0   0   0   1 22
   0   0   0   0   0   0   0   0   0   0   0   0 
